results/res_prop_muc/res_Cimatti_mathsat_cores/QF_LRA/op_seen_less2.induction.smt.smt2.res
unsat
( c100
  c1010
  c1026
  c1065
  c1100
  c1107
  c1109
  c1113
  c1117
  c1126
  c1127
  c1132
  c1136
  c114
  c115
  c116
  c1180
  c119
  c1206
  c124
  c126
  c1278
  c1305
  c131
  c133
  c1351
  c1467
  c1493
  c1508
  c1524
  c1563
  c1598
  c1605
  c1607
  c1611
  c1615
  c1634
  c1704
  c1776
  c1803
  c1849
  c1965
  c1991
  c2061
  c2096
  c2105
  c2132
  c2158
  c311
  c312
  c35
  c37
  c44
  c499
  c500
  c565
  c568
  c569
  c570
  c576
  c600
  c601
  c602
  c604
  c611
  c620
  c621
  c622
  c624
  c628
  c629
  c682
  c708
  c780
  c807
  c853
  c967
  c99
  c995 )
